221 300 153 158 121 110 199 166 193 112 190 153 105 122 148 152 135 153 139 159 122 135 154 188 168 125 197 116 172 179 110 189 110 163 112 131 139 111 197 131 123 186 184 196 175 131 113 176 150 152 134 172 187 188 126 120 180 122 136 151 168 112 105 144 175 118 175 113 129 137 145 118 190 195 180 164 126 193 139 142 110 139 114 163 126 140 183 105 128 185 123 162 197 128 105 171 146 146 151 141 184 162 126 173 156 105 102 148 165 107 191 175 146 171 138 138 110 120 144 104 172 133 167 168 127 138 105 140 185 122 181 134 184 173 173 105 179 141 154 143 148 110 117 160 181 121 198 157 108 107 161 180 140 194 113 134 132 118 174 183 106 120 116 190 194 155 196 172 196 115 181 143 192 164 169 138 186 166 195 194 140 121 139 146 115 152 180 113 137 153 196 143 140 178 133 133 132 195 171 127 176 151 136 133 114 104 171 200 136 165 159 176 152 198 122 133 150 101 146 187 121 107 196 